NAME          
ROWS
 N  OBJ
 L  c1
 L  c2
 L  c3
 L  c4
COLUMNS
    MARKER    'MARKER'                 'INTORG'
    x[1]      c1        575
    x[1]      c2        830
    x[1]      c3        200
    x[1]      c4        377
    x[1]      OBJ       -58
    x[2]      c1        336
    x[2]      c2        508
    x[2]      c3        402
    x[2]      c4        317
    x[2]      OBJ       -657
    x[3]      c1        735
    x[3]      c2        482
    x[3]      c3        156
    x[3]      c4        13
    x[3]      OBJ       -543
    x[4]      c1        155
    x[4]      c2        304
    x[4]      c3        24
    x[4]      c4        798
    x[4]      OBJ       -712
    x[5]      c1        330
    x[5]      c2        190
    x[5]      c3        150
    x[5]      c4        753
    x[5]      OBJ       -362
    x[6]      c1        124
    x[6]      c2        856
    x[6]      c3        157
    x[6]      c4        291
    x[6]      OBJ       -577
    x[7]      c1        655
    x[7]      c2        482
    x[7]      c3        933
    x[7]      c4        126
    x[7]      OBJ       -745
    x[8]      c1        863
    x[8]      c2        282
    x[8]      c3        733
    x[8]      c4        748
    x[8]      OBJ       -137
    x[9]      c1        132
    x[9]      c2        147
    x[9]      c3        945
    x[9]      c4        420
    x[9]      OBJ       -829
    x[10]     c1        550
    x[10]     c2        891
    x[10]     c3        713
    x[10]     c4        232
    x[10]     OBJ       -139
RHS
    rhs       c1        2228
    rhs       c2        2486
    rhs       c3        2206
    rhs       c4        2038
RANGES
BOUNDS
 BV bounds    x[1]
 BV bounds    x[2]
 BV bounds    x[3]
 BV bounds    x[4]
 BV bounds    x[5]
 BV bounds    x[6]
 BV bounds    x[7]
 BV bounds    x[8]
 BV bounds    x[9]
 BV bounds    x[10]
ENDATA
